************************************************************************
file with basedata            : md338_.bas
initial value random generator: 980386997
************************************************************************
projects                      :  1
jobs (incl. supersource/sink ):  22
horizon                       :  149
RESOURCES
  - renewable                 :  2   R
  - nonrenewable              :  2   N
  - doubly constrained        :  0   D
************************************************************************
PROJECT INFORMATION:
pronr.  #jobs rel.date duedate tardcost  MPM-Time
    1     20      0       20       14       20
************************************************************************
PRECEDENCE RELATIONS:
jobnr.    #modes  #successors   successors
   1        1          3           2   3   4
   2        3          3           6   8  11
   3        3          3           5   6  14
   4        3          3           7  13  17
   5        3          1          12
   6        3          3           9  10  20
   7        3          2           8  11
   8        3          1           9
   9        3          2          15  19
  10        3          1          12
  11        3          2          14  15
  12        3          3          15  16  17
  13        3          3          16  20  21
  14        3          3          16  18  21
  15        3          1          21
  16        3          1          19
  17        3          1          19
  18        3          1          20
  19        3          1          22
  20        3          1          22
  21        3          1          22
  22        1          0        
************************************************************************
REQUESTS/DURATIONS:
jobnr. mode duration  R 1  R 2  N 1  N 2
------------------------------------------------------------------------
  1      1     0       0    0    0    0
  2      1     2       0    7    9    0
         2     4       5    0    1    0
         3     4       0    5    4    0
  3      1     3       8    0    8    0
         2     3       0    9    7    0
         3     7       0    9    0    6
  4      1     2       6    0    6    0
         2     7       0    7    0    7
         3     9       4    0    0    3
  5      1     1       0    7    0    9
         2     6       0    4    0    6
         3     8       0    3   10    0
  6      1     8       0    9    0    5
         2     9       0    9    6    0
         3    10      10    0    4    0
  7      1     3       0    2    3    0
         2     3       0    3    0    6
         3     8       9    0    0    2
  8      1     1       0    7    9    0
         2     3       0    2    8    0
         3     4       5    0    0    2
  9      1     3       8    0    2    0
         2     8       5    0    0    8
         3     9       0    5    2    0
 10      1     2       7    0    0   10
         2     3       0    5    0    3
         3     6       6    0    4    0
 11      1     6       9    0    6    0
         2     8       7    0    5    0
         3    10       6    0    5    0
 12      1     1       0    3    0    8
         2     4       0    3    0    1
         3     5       1    0    4    0
 13      1     5       0    8    0    7
         2     7       0    7    5    0
         3    10       0    4    4    0
 14      1     2       0    9    6    0
         2     2       8    0    0    6
         3     2       0   10    0    8
 15      1     3       0    6    0    9
         2     6       4    0    8    0
         3     7       0    5    0    3
 16      1     2       8    0    5    0
         2     4       8    0    0    5
         3     8       8    0    4    0
 17      1     4       7    0    0    2
         2     4       9    0    5    0
         3     9       5    0    0    2
 18      1     2       0    5    0   10
         2     8       5    0    0    9
         3    10       0    4    0    7
 19      1     2       0    7    2    0
         2     4       0    7    1    0
         3     6       0    5    0    8
 20      1     1       5    0    5    0
         2     2       0    9    4    0
         3     7       4    0    0    7
 21      1     2       0   10    0    7
         2     4       7    0    0    7
         3    10       0    9    5    0
 22      1     0       0    0    0    0
************************************************************************
RESOURCEAVAILABILITIES:
  R 1  R 2  N 1  N 2
   17   15   83   95
************************************************************************
MAXIMAL LAGS:
from  to  type  delay
    1   12   ES      0
    1    2   ES      0
    2   12   ES      0
    1    3   ES      0
    3   12   ES      0
    1    4   ES      0
    4   12   ES      0
    1    5   ES      0
    5   12   ES      0
    1    6   ES      0
    6   12   ES      0
    1    7   ES      0
    7   12   ES      0
    1    8   ES      0
    8   12   ES      0
    1    9   ES      0
    9   12   ES      0
    1   10   ES      0
   10   12   ES      0
    1   11   ES      0
   11   12   ES      0
    1   12   ES      0
    2    6   SS      3
    2    6   SE      9
    2    6   ES      7
    2    6   EE    -10
    2    8   SS     -7
    2    8   SE      4
    8    2   SE      0
    2    8   ES      0
    2    8   EE     12
    2   11   SS      8
    2   11   SE     12
    2   11   ES      4
    2   11   EE     -1
    3    5   SS      3
    3    5   SE      4
    3    5   ES      2
    3    5   EE     -7
    3    6   SS     -2
    3    6   SE     10
    3    6   ES     -1
    3    6   EE      4
    3   14   SS     10
    3   14   SE      3
    3   14   ES     10
    3   14   EE      3
    4    7   SS      3
    4    7   SE     -4
    4    7   ES      6
    4    7   EE      0
    4   13   SS      8
    4   13   SE      6
    4   13   ES      8
    4   13   EE    -11
    4   17   SS     -6
    4   17   SE     -5
    4   17   ES     -6
    4   17   EE      2
    6    9   SS     -5
    6    9   SE      0
    6    9   ES     -6
    6    9   EE     -3
    6   10   SS      1
    6   10   SE      0
    6   10   ES      6
    6   10   EE     -7
    6   20   SS     -1
    6   20   SE     -4
    6   20   ES      5
    6   20   EE    -10
    7    8   SS     -8
    7    8   SE     12
    7    8   ES    -10
    7    8   EE     -3
    7   11   SS      2
    7   11   SE      4
    7   11   ES     -1
    7   11   EE     -5
    8    9   SS      6
    8    9   SE    -11
    8    9   ES      2
    8    9   EE      4
    9   15   SS      7
    9   15   SE     -2
    9   15   ES      1
    9   15   EE      2
    9   19   SS      2
    9   19   SE      1
    9   19   ES      1
    9   19   EE     -1
   11   14   SS      3
   11   14   SE     -2
   11   14   ES     -4
   11   14   EE      0
   11   15   SS    -12
   11   15   SE     -7
   11   15   ES      2
   11   15   EE     -5
   12   15   SS     -4
   12   15   SE      8
   12   15   ES    -10
   12   15   EE     -1
   12   16   SS    -10
   12   16   SE     -3
   12   16   ES      4
   12   16   EE      4
   12   17   SS      5
   12   17   SE      8
   12   17   ES    -10
   12   17   EE     -4
   13   16   SS     -5
   13   16   SE     -9
   13   16   ES     -9
   13   16   EE    -10
   13   20   SS     -1
   13   20   SE    -11
   13   20   ES      5
   13   20   EE     -6
   13   21   SS     -2
   13   21   SE     -6
   13   21   ES      9
   13   21   EE     -2
   14   16   SS     -4
   14   16   SE     -3
   14   16   ES     11
   14   16   EE     12
   14   18   SS      9
   14   18   SE     -4
   14   18   ES     -6
   14   18   EE     10
   14   21   SS      7
   14   21   SE     -8
   14   21   ES     12
   14   21   EE     10
   15   21   SS     11
   15   21   SE      5
   15   21   ES     -4
   15   21   EE    -12
   16   19   SS     12
   16   19   SE     -3
   16   19   ES     -3
   16   19   EE     -1
   17   19   SS      0
   17   19   SE      0
   17   19   ES      6
   17   19   EE     12
   18   20   SS      8
   18   20   SE    -12
   18   20   ES      3
   18   20   EE      8
   19   22   SS      4
   19   22   SE     12
   19   22   ES     -8
   19   22   EE      0
   20   22   SS     -5
   20   22   SE     -5
   20   22   ES     11
   20   22   EE     11
   21   22   SS     -6
   21   22   SE      3
   21   22   ES     -5
   21   22   EE      4
************************************************************************
